65 83 59 75 23 21 18 51 84 85 50 34 32 26 89 48 24 91 80 
69 98 88 78 73 79 8 46 3 1 4 100 70 
72 39 36 40 41 38 37 35 43 68 
42 44 61 81 
5 45 2 6 7 55 
14 47 16 15 11 12 53 90 
82 52 99 9 10 13 17 60 
71 67 94 96 54 93 
95 63 76 19 49 22 20 56 66 
92 33 31 29 27 28 30 62 64 57 86 87 97 74 58 77 25 
